Data path: /scratch/opt/lxu/CFLG/benchmarks/tree_A
Instance: treeA.20.1
Result path: /scratch/opt/lxu/CFLG/results/tree_A
Solver: Gurobi
Time limit: 7200
Formulation: LEFPAI
Cover: Large
julia --project=. src/main.jl /scratch/opt/lxu/CFLG/benchmarks/tree_A treeA.20.1 /scratch/opt/lxu/CFLG/results/tree_A Gurobi 7200 LEFPAI Large
The latest version of Julia in the `release` channel is 1.11.6+0.x64.linux.gnu. You currently have `1.11.4+0.x64.linux.gnu` installed. Run:

  juliaup update

in your terminal shell to install Julia 1.11.6+0.x64.linux.gnu and update the `release` channel to that version.
/scratch/opt/lxu/CFLG/benchmarks/tree_A Gurobi 7200.0 /scratch/opt/lxu/CFLG/results/tree_A treeA.20.1 LEFPAI Large
/scratch/opt/lxu/CFLG/benchmarks/tree_A/treeA.20.1

 read graph
data loaded

problem_graph/original graph: node: 20/20 edge: 20/20 dlt: 3.2512589074571827 break_avg_len: 1.6256294537285914 break_max_len: 1.9536620412233594Vbar/V, Ebar/E(9, 20, 9, 20)
Set parameter TokenServer to value "solice01.zib.de"
Set parameter Threads to value 1
Set parameter OutputFlag to value 1
Gurobi Optimizer version 12.0.1 build v12.0.1rc0 (linux64 - "Debian GNU/Linux 12 (bookworm)")

CPU model: Intel(R) Xeon(R) Gold 5222 CPU @ 3.80GHz, instruction set [SSE2|AVX|AVX2|AVX512]
Thread count: 8 physical cores, 16 logical processors, using up to 1 threads

Non-default parameters:
Threads  1

Optimize a model with 20 rows, 30 columns and 50 nonzeros
Model fingerprint: 0x335152de
Coefficient statistics:
  Matrix range     [1e+00, 1e+00]
  Objective range  [1e+00, 1e+00]
  Bounds range     [1e+00, 1e+00]
  RHS range        [1e+00, 1e+00]
Presolve removed 16 rows and 22 columns
Presolve time: 0.00s
Presolved: 4 rows, 8 columns, 12 nonzeros

Iteration    Objective       Primal Inf.    Dual Inf.      Time
       0    9.0000000e+00   2.000000e+00   0.000000e+00      0s
       2    7.0000000e+00   0.000000e+00   0.000000e+00      0s

Solved in 2 iterations and 0.00 seconds (0.00 work units)
Optimal objective  7.000000000e+00

User-callback calls 93, time in user-callback 0.01 sec
elapsed CPU time: 1.065203 seconds
Set parameter TokenServer to value "solice01.zib.de"
Set parameter Threads to value 1
Set parameter OutputFlag to value 1
Set parameter MIPGap to value 0.0001
Set parameter TimeLimit to value 7198.934797

 more cuts: false 3.2512589074571827 false
is_attach:trueformulation:LEFPAI0 10 10

 model loaded

Gurobi Optimizer version 12.0.1 build v12.0.1rc0 (linux64 - "Debian GNU/Linux 12 (bookworm)")

CPU model: Intel(R) Xeon(R) Gold 5222 CPU @ 3.80GHz, instruction set [SSE2|AVX|AVX2|AVX512]
Thread count: 8 physical cores, 16 logical processors, using up to 1 threads

Non-default parameters:
TimeLimit  7198.934797
Threads  1

Optimize a model with 163 rows, 133 columns and 415 nonzeros
Model fingerprint: 0x85edebb3
Model has 83 simple general constraints
  83 INDICATOR
Variable types: 30 continuous, 103 integer (103 binary)
Coefficient statistics:
  Matrix range     [1e+00, 3e+00]
  Objective range  [1e+00, 1e+00]
  Bounds range     [1e+00, 3e+00]
  RHS range        [1e+00, 3e+00]
  GenCon rhs range [3e-03, 3e+00]
  GenCon coe range [1e+00, 1e+00]
Presolve added 11 rows and 0 columns
Presolve removed 0 rows and 44 columns
Presolve time: 0.01s
Presolved: 174 rows, 89 columns, 815 nonzeros
Variable types: 19 continuous, 70 integer (70 binary)
Found heuristic solution: objective 6.0000000
Found heuristic solution: objective 5.0000000

Root relaxation: objective 4.000000e+00, 103 iterations, 0.00 seconds (0.00 work units)

    Nodes    |    Current Node    |     Objective Bounds      |     Work
 Expl Unexpl |  Obj  Depth IntInf | Incumbent    BestBd   Gap | It/Node Time

H    0     0                       4.0000000    4.00000  0.00%     -    0s
     0     0    4.00000    0   22    4.00000    4.00000  0.00%     -    0s

Explored 1 nodes (103 simplex iterations) in 0.01 seconds (0.01 work units)
Thread count was 1 (of 16 available processors)

Solution count 3: 4 5 6 

Optimal solution found (tolerance 1.00e-04)
Best objective 4.000000000000e+00, best bound 4.000000000000e+00, gap 0.0000%

User-callback calls 811, time in user-callback 0.00 sec

 sepatime0 0 0
4.0
Stat(MathOptInterface.OPTIMAL, 4.0, 4.0, 0.0, 0.0, 1.065203, 0.009881019592285156, 1, Main.CFLG.LEFPAI, "", #undef)
ERROR: LoadError: SystemError: opening file "/scratch/opt/lxu/CFLG/results/tree_A/treeA.20.1.LEFPAI.Large": No such file or directory
Stacktrace:
 [1] systemerror(p::String, errno::Int32; extrainfo::Nothing)
   @ Base ./error.jl:176
 [2] systemerror
   @ ./error.jl:175 [inlined]
 [3] open(fname::String; lock::Bool, read::Nothing, write::Nothing, create::Nothing, truncate::Bool, append::Nothing)
   @ Base ./iostream.jl:295
 [4] open
   @ ./iostream.jl:277 [inlined]
 [5] open(fname::String, mode::String; lock::Bool)
   @ Base ./iostream.jl:358
 [6] open
   @ ./iostream.jl:357 [inlined]
 [7] main(args::Vector{String})
   @ Main /scratch/opt/lxu/CFLG/src/main.jl:51
 [8] top-level scope
   @ /scratch/opt/lxu/CFLG/src/main.jl:57
in expression starting at /scratch/opt/lxu/CFLG/src/main.jl:57
srun: error: htc-cmp482: task 0: Exited with exit code 1
